(set-logic QF_LRA)
(declare-fun T1 () Real )
(declare-fun T2 () Real )
(declare-fun T3 () Real )
(declare-fun T4 () Real )
(declare-fun T5 () Real )
(declare-fun T6 () Real )
(declare-fun T7 () Real )
(declare-fun T8 () Real )
(declare-fun Z () Real )
(declare-fun k () Real )
(assert (let
(( $goal (>= Z k) ))
(let
((
$phi ( and 
(or ( <= ( + T1 23 ) T2 ) ( <= ( + T2 16 ) T1 ) )
(or ( <= ( + T1 104 )  ( + T2 16 ) ) ( <= ( + T2 78 )( + T1 23 ) ) )
(or ( <= ( + T1 181 )  ( + T2 78 ) ) ( <= ( + T2 138 )( + T1 104 ) ) )
(or ( <= ( + T1 239 )  ( + T2 138 ) ) ( <= ( + T2 227 )( + T1 181 ) ) )
(or ( <= ( + T1 328 )  ( + T2 227 ) ) ( <= ( + T2 304 )( + T1 239 ) ) )
(or ( <= ( + T1 389 )  ( + T2 304 ) ) ( <= ( + T2 367 )( + T1 328 ) ) )
(or ( <= ( + T1 23 ) T3 ) ( <= ( + T3 2 ) T1 ) )
(or ( <= ( + T1 104 )  ( + T3 2 ) ) ( <= ( + T3 17 )( + T1 23 ) ) )
(or ( <= ( + T1 181 )  ( + T3 17 ) ) ( <= ( + T3 53 )( + T1 104 ) ) )
(or ( <= ( + T1 239 )  ( + T3 53 ) ) ( <= ( + T3 85 )( + T1 181 ) ) )
(or ( <= ( + T1 328 )  ( + T3 85 ) ) ( <= ( + T3 94 )( + T1 239 ) ) )
(or ( <= ( + T1 389 )  ( + T3 94 ) ) ( <= ( + T3 146 )( + T1 328 ) ) )
(or ( <= ( + T1 23 ) T4 ) ( <= ( + T4 100 ) T1 ) )
(or ( <= ( + T1 104 )  ( + T4 100 ) ) ( <= ( + T4 186 )( + T1 23 ) ) )
(or ( <= ( + T1 181 )  ( + T4 186 ) ) ( <= ( + T4 238 )( + T1 104 ) ) )
(or ( <= ( + T1 239 )  ( + T4 238 ) ) ( <= ( + T4 280 )( + T1 181 ) ) )
(or ( <= ( + T1 328 )  ( + T4 280 ) ) ( <= ( + T4 334 )( + T1 239 ) ) )
(or ( <= ( + T1 389 )  ( + T4 334 ) ) ( <= ( + T4 432 )( + T1 328 ) ) )
(or ( <= ( + T1 23 ) T5 ) ( <= ( + T5 62 ) T1 ) )
(or ( <= ( + T1 104 )  ( + T5 62 ) ) ( <= ( + T5 105 )( + T1 23 ) ) )
(or ( <= ( + T1 181 )  ( + T5 105 ) ) ( <= ( + T5 141 )( + T1 104 ) ) )
(or ( <= ( + T1 239 )  ( + T5 141 ) ) ( <= ( + T5 148 )( + T1 181 ) ) )
(or ( <= ( + T1 328 )  ( + T5 148 ) ) ( <= ( + T5 238 )( + T1 239 ) ) )
(or ( <= ( + T1 389 )  ( + T5 238 ) ) ( <= ( + T5 245 )( + T1 328 ) ) )
(or ( <= ( + T1 23 ) T6 ) ( <= ( + T6 91 ) T1 ) )
(or ( <= ( + T1 104 )  ( + T6 91 ) ) ( <= ( + T6 155 )( + T1 23 ) ) )
(or ( <= ( + T1 181 )  ( + T6 155 ) ) ( <= ( + T6 243 )( + T1 104 ) ) )
(or ( <= ( + T1 239 )  ( + T6 243 ) ) ( <= ( + T6 310 )( + T1 181 ) ) )
(or ( <= ( + T1 328 )  ( + T6 310 ) ) ( <= ( + T6 383 )( + T1 239 ) ) )
(or ( <= ( + T1 389 )  ( + T6 383 ) ) ( <= ( + T6 459 )( + T1 328 ) ) )
(or ( <= ( + T1 23 ) T7 ) ( <= ( + T7 27 ) T1 ) )
(or ( <= ( + T1 104 )  ( + T7 27 ) ) ( <= ( + T7 67 )( + T1 23 ) ) )
(or ( <= ( + T1 181 )  ( + T7 67 ) ) ( <= ( + T7 104 )( + T1 104 ) ) )
(or ( <= ( + T1 239 )  ( + T7 104 ) ) ( <= ( + T7 142 )( + T1 181 ) ) )
(or ( <= ( + T1 328 )  ( + T7 142 ) ) ( <= ( + T7 171 )( + T1 239 ) ) )
(or ( <= ( + T1 389 )  ( + T7 171 ) ) ( <= ( + T7 236 )( + T1 328 ) ) )
(or ( <= ( + T1 23 ) T8 ) ( <= ( + T8 52 ) T1 ) )
(or ( <= ( + T1 104 )  ( + T8 52 ) ) ( <= ( + T8 134 )( + T1 23 ) ) )
(or ( <= ( + T1 181 )  ( + T8 134 ) ) ( <= ( + T8 214 )( + T1 104 ) ) )
(or ( <= ( + T1 239 )  ( + T8 214 ) ) ( <= ( + T8 302 )( + T1 181 ) ) )
(or ( <= ( + T1 328 )  ( + T8 302 ) ) ( <= ( + T8 315 )( + T1 239 ) ) )
(or ( <= ( + T1 389 )  ( + T8 315 ) ) ( <= ( + T8 355 )( + T1 328 ) ) )
(or ( <= ( + T2 16 ) T3 ) ( <= ( + T3 2 ) T2 ) )
(or ( <= ( + T2 78 )  ( + T3 2 ) ) ( <= ( + T3 17 )( + T2 16 ) ) )
(or ( <= ( + T2 138 )  ( + T3 17 ) ) ( <= ( + T3 53 )( + T2 78 ) ) )
(or ( <= ( + T2 227 )  ( + T3 53 ) ) ( <= ( + T3 85 )( + T2 138 ) ) )
(or ( <= ( + T2 304 )  ( + T3 85 ) ) ( <= ( + T3 94 )( + T2 227 ) ) )
(or ( <= ( + T2 367 )  ( + T3 94 ) ) ( <= ( + T3 146 )( + T2 304 ) ) )
(or ( <= ( + T2 16 ) T4 ) ( <= ( + T4 100 ) T2 ) )
(or ( <= ( + T2 78 )  ( + T4 100 ) ) ( <= ( + T4 186 )( + T2 16 ) ) )
(or ( <= ( + T2 138 )  ( + T4 186 ) ) ( <= ( + T4 238 )( + T2 78 ) ) )
(or ( <= ( + T2 227 )  ( + T4 238 ) ) ( <= ( + T4 280 )( + T2 138 ) ) )
(or ( <= ( + T2 304 )  ( + T4 280 ) ) ( <= ( + T4 334 )( + T2 227 ) ) )
(or ( <= ( + T2 367 )  ( + T4 334 ) ) ( <= ( + T4 432 )( + T2 304 ) ) )
(or ( <= ( + T2 16 ) T5 ) ( <= ( + T5 62 ) T2 ) )
(or ( <= ( + T2 78 )  ( + T5 62 ) ) ( <= ( + T5 105 )( + T2 16 ) ) )
(or ( <= ( + T2 138 )  ( + T5 105 ) ) ( <= ( + T5 141 )( + T2 78 ) ) )
(or ( <= ( + T2 227 )  ( + T5 141 ) ) ( <= ( + T5 148 )( + T2 138 ) ) )
(or ( <= ( + T2 304 )  ( + T5 148 ) ) ( <= ( + T5 238 )( + T2 227 ) ) )
(or ( <= ( + T2 367 )  ( + T5 238 ) ) ( <= ( + T5 245 )( + T2 304 ) ) )
(or ( <= ( + T2 16 ) T6 ) ( <= ( + T6 91 ) T2 ) )
(or ( <= ( + T2 78 )  ( + T6 91 ) ) ( <= ( + T6 155 )( + T2 16 ) ) )
(or ( <= ( + T2 138 )  ( + T6 155 ) ) ( <= ( + T6 243 )( + T2 78 ) ) )
(or ( <= ( + T2 227 )  ( + T6 243 ) ) ( <= ( + T6 310 )( + T2 138 ) ) )
(or ( <= ( + T2 304 )  ( + T6 310 ) ) ( <= ( + T6 383 )( + T2 227 ) ) )
(or ( <= ( + T2 367 )  ( + T6 383 ) ) ( <= ( + T6 459 )( + T2 304 ) ) )
(or ( <= ( + T2 16 ) T7 ) ( <= ( + T7 27 ) T2 ) )
(or ( <= ( + T2 78 )  ( + T7 27 ) ) ( <= ( + T7 67 )( + T2 16 ) ) )
(or ( <= ( + T2 138 )  ( + T7 67 ) ) ( <= ( + T7 104 )( + T2 78 ) ) )
(or ( <= ( + T2 227 )  ( + T7 104 ) ) ( <= ( + T7 142 )( + T2 138 ) ) )
(or ( <= ( + T2 304 )  ( + T7 142 ) ) ( <= ( + T7 171 )( + T2 227 ) ) )
(or ( <= ( + T2 367 )  ( + T7 171 ) ) ( <= ( + T7 236 )( + T2 304 ) ) )
(or ( <= ( + T2 16 ) T8 ) ( <= ( + T8 52 ) T2 ) )
(or ( <= ( + T2 78 )  ( + T8 52 ) ) ( <= ( + T8 134 )( + T2 16 ) ) )
(or ( <= ( + T2 138 )  ( + T8 134 ) ) ( <= ( + T8 214 )( + T2 78 ) ) )
(or ( <= ( + T2 227 )  ( + T8 214 ) ) ( <= ( + T8 302 )( + T2 138 ) ) )
(or ( <= ( + T2 304 )  ( + T8 302 ) ) ( <= ( + T8 315 )( + T2 227 ) ) )
(or ( <= ( + T2 367 )  ( + T8 315 ) ) ( <= ( + T8 355 )( + T2 304 ) ) )
(or ( <= ( + T3 2 ) T4 ) ( <= ( + T4 100 ) T3 ) )
(or ( <= ( + T3 17 )  ( + T4 100 ) ) ( <= ( + T4 186 )( + T3 2 ) ) )
(or ( <= ( + T3 53 )  ( + T4 186 ) ) ( <= ( + T4 238 )( + T3 17 ) ) )
(or ( <= ( + T3 85 )  ( + T4 238 ) ) ( <= ( + T4 280 )( + T3 53 ) ) )
(or ( <= ( + T3 94 )  ( + T4 280 ) ) ( <= ( + T4 334 )( + T3 85 ) ) )
(or ( <= ( + T3 146 )  ( + T4 334 ) ) ( <= ( + T4 432 )( + T3 94 ) ) )
(or ( <= ( + T3 2 ) T5 ) ( <= ( + T5 62 ) T3 ) )
(or ( <= ( + T3 17 )  ( + T5 62 ) ) ( <= ( + T5 105 )( + T3 2 ) ) )
(or ( <= ( + T3 53 )  ( + T5 105 ) ) ( <= ( + T5 141 )( + T3 17 ) ) )
(or ( <= ( + T3 85 )  ( + T5 141 ) ) ( <= ( + T5 148 )( + T3 53 ) ) )
(or ( <= ( + T3 94 )  ( + T5 148 ) ) ( <= ( + T5 238 )( + T3 85 ) ) )
(or ( <= ( + T3 146 )  ( + T5 238 ) ) ( <= ( + T5 245 )( + T3 94 ) ) )
(or ( <= ( + T3 2 ) T6 ) ( <= ( + T6 91 ) T3 ) )
(or ( <= ( + T3 17 )  ( + T6 91 ) ) ( <= ( + T6 155 )( + T3 2 ) ) )
(or ( <= ( + T3 53 )  ( + T6 155 ) ) ( <= ( + T6 243 )( + T3 17 ) ) )
(or ( <= ( + T3 85 )  ( + T6 243 ) ) ( <= ( + T6 310 )( + T3 53 ) ) )
(or ( <= ( + T3 94 )  ( + T6 310 ) ) ( <= ( + T6 383 )( + T3 85 ) ) )
(or ( <= ( + T3 146 )  ( + T6 383 ) ) ( <= ( + T6 459 )( + T3 94 ) ) )
(or ( <= ( + T3 2 ) T7 ) ( <= ( + T7 27 ) T3 ) )
(or ( <= ( + T3 17 )  ( + T7 27 ) ) ( <= ( + T7 67 )( + T3 2 ) ) )
(or ( <= ( + T3 53 )  ( + T7 67 ) ) ( <= ( + T7 104 )( + T3 17 ) ) )
(or ( <= ( + T3 85 )  ( + T7 104 ) ) ( <= ( + T7 142 )( + T3 53 ) ) )
(or ( <= ( + T3 94 )  ( + T7 142 ) ) ( <= ( + T7 171 )( + T3 85 ) ) )
(or ( <= ( + T3 146 )  ( + T7 171 ) ) ( <= ( + T7 236 )( + T3 94 ) ) )
(or ( <= ( + T3 2 ) T8 ) ( <= ( + T8 52 ) T3 ) )
(or ( <= ( + T3 17 )  ( + T8 52 ) ) ( <= ( + T8 134 )( + T3 2 ) ) )
(or ( <= ( + T3 53 )  ( + T8 134 ) ) ( <= ( + T8 214 )( + T3 17 ) ) )
(or ( <= ( + T3 85 )  ( + T8 214 ) ) ( <= ( + T8 302 )( + T3 53 ) ) )
(or ( <= ( + T3 94 )  ( + T8 302 ) ) ( <= ( + T8 315 )( + T3 85 ) ) )
(or ( <= ( + T3 146 )  ( + T8 315 ) ) ( <= ( + T8 355 )( + T3 94 ) ) )
(or ( <= ( + T4 100 ) T5 ) ( <= ( + T5 62 ) T4 ) )
(or ( <= ( + T4 186 )  ( + T5 62 ) ) ( <= ( + T5 105 )( + T4 100 ) ) )
(or ( <= ( + T4 238 )  ( + T5 105 ) ) ( <= ( + T5 141 )( + T4 186 ) ) )
(or ( <= ( + T4 280 )  ( + T5 141 ) ) ( <= ( + T5 148 )( + T4 238 ) ) )
(or ( <= ( + T4 334 )  ( + T5 148 ) ) ( <= ( + T5 238 )( + T4 280 ) ) )
(or ( <= ( + T4 432 )  ( + T5 238 ) ) ( <= ( + T5 245 )( + T4 334 ) ) )
(or ( <= ( + T4 100 ) T6 ) ( <= ( + T6 91 ) T4 ) )
(or ( <= ( + T4 186 )  ( + T6 91 ) ) ( <= ( + T6 155 )( + T4 100 ) ) )
(or ( <= ( + T4 238 )  ( + T6 155 ) ) ( <= ( + T6 243 )( + T4 186 ) ) )
(or ( <= ( + T4 280 )  ( + T6 243 ) ) ( <= ( + T6 310 )( + T4 238 ) ) )
(or ( <= ( + T4 334 )  ( + T6 310 ) ) ( <= ( + T6 383 )( + T4 280 ) ) )
(or ( <= ( + T4 432 )  ( + T6 383 ) ) ( <= ( + T6 459 )( + T4 334 ) ) )
(or ( <= ( + T4 100 ) T7 ) ( <= ( + T7 27 ) T4 ) )
(or ( <= ( + T4 186 )  ( + T7 27 ) ) ( <= ( + T7 67 )( + T4 100 ) ) )
(or ( <= ( + T4 238 )  ( + T7 67 ) ) ( <= ( + T7 104 )( + T4 186 ) ) )
(or ( <= ( + T4 280 )  ( + T7 104 ) ) ( <= ( + T7 142 )( + T4 238 ) ) )
(or ( <= ( + T4 334 )  ( + T7 142 ) ) ( <= ( + T7 171 )( + T4 280 ) ) )
(or ( <= ( + T4 432 )  ( + T7 171 ) ) ( <= ( + T7 236 )( + T4 334 ) ) )
(or ( <= ( + T4 100 ) T8 ) ( <= ( + T8 52 ) T4 ) )
(or ( <= ( + T4 186 )  ( + T8 52 ) ) ( <= ( + T8 134 )( + T4 100 ) ) )
(or ( <= ( + T4 238 )  ( + T8 134 ) ) ( <= ( + T8 214 )( + T4 186 ) ) )
(or ( <= ( + T4 280 )  ( + T8 214 ) ) ( <= ( + T8 302 )( + T4 238 ) ) )
(or ( <= ( + T4 334 )  ( + T8 302 ) ) ( <= ( + T8 315 )( + T4 280 ) ) )
(or ( <= ( + T4 432 )  ( + T8 315 ) ) ( <= ( + T8 355 )( + T4 334 ) ) )
(or ( <= ( + T5 62 ) T6 ) ( <= ( + T6 91 ) T5 ) )
(or ( <= ( + T5 105 )  ( + T6 91 ) ) ( <= ( + T6 155 )( + T5 62 ) ) )
(or ( <= ( + T5 141 )  ( + T6 155 ) ) ( <= ( + T6 243 )( + T5 105 ) ) )
(or ( <= ( + T5 148 )  ( + T6 243 ) ) ( <= ( + T6 310 )( + T5 141 ) ) )
(or ( <= ( + T5 238 )  ( + T6 310 ) ) ( <= ( + T6 383 )( + T5 148 ) ) )
(or ( <= ( + T5 245 )  ( + T6 383 ) ) ( <= ( + T6 459 )( + T5 238 ) ) )
(or ( <= ( + T5 62 ) T7 ) ( <= ( + T7 27 ) T5 ) )
(or ( <= ( + T5 105 )  ( + T7 27 ) ) ( <= ( + T7 67 )( + T5 62 ) ) )
(or ( <= ( + T5 141 )  ( + T7 67 ) ) ( <= ( + T7 104 )( + T5 105 ) ) )
(or ( <= ( + T5 148 )  ( + T7 104 ) ) ( <= ( + T7 142 )( + T5 141 ) ) )
(or ( <= ( + T5 238 )  ( + T7 142 ) ) ( <= ( + T7 171 )( + T5 148 ) ) )
(or ( <= ( + T5 245 )  ( + T7 171 ) ) ( <= ( + T7 236 )( + T5 238 ) ) )
(or ( <= ( + T5 62 ) T8 ) ( <= ( + T8 52 ) T5 ) )
(or ( <= ( + T5 105 )  ( + T8 52 ) ) ( <= ( + T8 134 )( + T5 62 ) ) )
(or ( <= ( + T5 141 )  ( + T8 134 ) ) ( <= ( + T8 214 )( + T5 105 ) ) )
(or ( <= ( + T5 148 )  ( + T8 214 ) ) ( <= ( + T8 302 )( + T5 141 ) ) )
(or ( <= ( + T5 238 )  ( + T8 302 ) ) ( <= ( + T8 315 )( + T5 148 ) ) )
(or ( <= ( + T5 245 )  ( + T8 315 ) ) ( <= ( + T8 355 )( + T5 238 ) ) )
(or ( <= ( + T6 91 ) T7 ) ( <= ( + T7 27 ) T6 ) )
(or ( <= ( + T6 155 )  ( + T7 27 ) ) ( <= ( + T7 67 )( + T6 91 ) ) )
(or ( <= ( + T6 243 )  ( + T7 67 ) ) ( <= ( + T7 104 )( + T6 155 ) ) )
(or ( <= ( + T6 310 )  ( + T7 104 ) ) ( <= ( + T7 142 )( + T6 243 ) ) )
(or ( <= ( + T6 383 )  ( + T7 142 ) ) ( <= ( + T7 171 )( + T6 310 ) ) )
(or ( <= ( + T6 459 )  ( + T7 171 ) ) ( <= ( + T7 236 )( + T6 383 ) ) )
(or ( <= ( + T6 91 ) T8 ) ( <= ( + T8 52 ) T6 ) )
(or ( <= ( + T6 155 )  ( + T8 52 ) ) ( <= ( + T8 134 )( + T6 91 ) ) )
(or ( <= ( + T6 243 )  ( + T8 134 ) ) ( <= ( + T8 214 )( + T6 155 ) ) )
(or ( <= ( + T6 310 )  ( + T8 214 ) ) ( <= ( + T8 302 )( + T6 243 ) ) )
(or ( <= ( + T6 383 )  ( + T8 302 ) ) ( <= ( + T8 315 )( + T6 310 ) ) )
(or ( <= ( + T6 459 )  ( + T8 315 ) ) ( <= ( + T8 355 )( + T6 383 ) ) )
(or ( <= ( + T7 27 ) T8 ) ( <= ( + T8 52 ) T7 ) )
(or ( <= ( + T7 67 )  ( + T8 52 ) ) ( <= ( + T8 134 )( + T7 27 ) ) )
(or ( <= ( + T7 104 )  ( + T8 134 ) ) ( <= ( + T8 214 )( + T7 67 ) ) )
(or ( <= ( + T7 142 )  ( + T8 214 ) ) ( <= ( + T8 302 )( + T7 104 ) ) )
(or ( <= ( + T7 171 )  ( + T8 302 ) ) ( <= ( + T8 315 )( + T7 142 ) ) )
(or ( <= ( + T7 236 )  ( + T8 315 ) ) ( <= ( + T8 355 )( + T7 171 ) ) )
( <= ( + T1 389 ) Z)
( <= ( + T2 367 ) Z)
( <= ( + T3 146 ) Z)
( <= ( + T4 432 ) Z)
( <= ( + T5 245 ) Z)
( <= ( + T6 459 ) Z)
( <= ( + T7 236 ) Z)
( <= ( + T8 355 ) Z)
( >= T1 0 )
( >= T2 0 )
( >= T3 0 )
( >= T4 0 )
( >= T5 0 )
( >= T6 0 )
( >= T7 0 )
( >= T8 0 )
) )
)(=> $phi $goal))))